 200 15 
 33 59 92 98 72 81 69 28 63 72 49 50 
 41 37 24 
 9 
 1 2 3 4 5 6 7 12 15 
 11 
 2 3 4 5 6 7 10 11 13 14 15 
 11 
 1 3 5 6 7 8 9 11 12 13 15 
 4 
 4 9 10 11 
 4 
 3 7 10 11 
 14 
 1 2 3 4 5 6 7 8 9 10 11 12 
 13 14 
 11 
 1 2 3 4 5 6 8 9 11 13 14 
 14 
 1 2 3 4 5 6 7 8 9 10 11 12 
 14 15 
 4 
 4 7 12 13 
 13 
 1 2 4 5 6 7 8 9 10 11 13 14 
 15 
 6 
 5 6 8 10 13 14 
 4 
 1 5 7 11 
 13 
 1 2 3 4 5 6 8 9 10 11 12 13 
 14 
 13 
 1 3 4 5 6 7 9 10 11 12 13 14 
 15 
 11 
 2 3 4 5 6 7 9 10 11 13 15 
 2 
 1 13 
 4 
 1 5 7 15 
 8 
 1 3 7 10 12 13 14 15 
 6 
 2 3 4 5 7 9 
 14 
 1 2 3 4 5 6 7 8 9 10 11 12 
 14 15 
 5 
 7 9 10 11 13 
 14 
 1 2 3 5 6 7 8 9 10 11 12 13 
 14 15 
 4 
 9 12 13 15 
 6 
 1 2 7 10 14 15 
 12 
 1 3 4 5 6 7 8 10 12 13 14 15 
 15 
 1 2 3 4 5 6 7 8 9 10 11 12 
 13 14 15 
 6 
 3 6 10 11 13 15 
 12 
 1 2 4 5 6 8 9 10 12 13 14 15 
 6 
 1 4 5 6 7 14 
 6 
 1 2 3 4 5 15 
 4 
 6 7 8 14 
 2 
 3 13 
 15 
 1 2 3 4 5 6 7 8 9 10 11 12 
 13 14 15 
 11 
 2 3 4 5 8 9 10 12 13 14 15 
 3 
 4 8 14 
 3 
 8 10 11 
 14 
 1 2 3 4 5 6 7 8 10 11 12 13 
 14 15 
 9 
 1 2 3 6 7 9 11 12 13 
 12 
 1 3 4 6 7 8 9 10 11 12 13 14 
 14 
 1 2 3 4 5 6 7 8 9 10 11 12 
 14 15 
 8 
 1 3 6 7 9 11 12 14 
 7 
 3 4 5 8 11 12 13 
 10 
 2 3 4 5 9 10 11 12 13 15 
 7 
 1 6 9 10 11 13 15 
 7 
 1 2 3 4 5 9 12 
 2 
 1 9 
 3 
 3 5 12 
 4 
 1 7 10 14 
 4 
 3 5 9 12 
 10 
 1 2 3 4 5 7 8 11 12 14 
 14 
 1 2 3 5 6 7 8 9 10 11 12 13 
 14 15 
 2 
 2 3 
 7 
 1 2 3 4 11 14 15 
 13 
 1 2 3 4 5 7 8 9 10 11 12 14 
 15 
 12 
 1 3 4 5 7 8 9 11 12 13 14 15 
 8 
 1 3 4 8 10 11 14 15 
 12 
 1 2 4 5 6 8 9 10 11 13 14 15 
 15 
 1 2 3 4 5 6 7 8 9 10 11 12 
 13 14 15 
 6 
 3 7 8 10 11 13 
 2 
 1 7 
 7 
 3 4 6 7 8 9 14 
 8 
 6 7 9 10 11 12 14 15 
 14 
 1 2 3 4 5 6 7 8 9 10 12 13 
 14 15 
 12 
 1 2 3 5 7 8 9 10 11 12 14 15 
 9 
 2 4 5 7 8 10 11 13 15 
 13 
 1 2 4 5 6 8 9 10 11 12 13 14 
 15 
 9 
 1 3 6 7 8 10 12 14 15 
 14 
 2 3 4 5 6 7 8 9 10 11 12 13 
 14 15 
 9 
 1 2 7 8 9 10 13 14 15 
 12 
 1 2 3 4 6 7 8 11 12 13 14 15 
 3 
 4 7 10 
 7 
 2 4 5 6 10 13 15 
 6 
 1 3 6 10 11 12 
 3 
 2 6 7 
 4 
 3 5 6 7 
 12 
 1 3 4 5 8 9 10 11 12 13 14 15 
 6 
 1 5 8 9 11 15 
 7 
 4 6 7 11 12 13 15 
 10 
 1 2 4 6 8 9 10 11 14 15 
 11 
 1 3 4 5 7 9 10 11 12 13 15 
 4 
 1 11 12 14 
 11 
 2 3 6 7 8 9 10 12 13 14 15 
 11 
 1 2 4 5 6 7 11 12 13 14 15 
 3 
 2 8 15 
 13 
 1 2 3 4 5 6 7 8 10 11 12 13 
 14 
 13 
 1 2 3 4 5 6 7 9 10 11 12 13 
 15 
 3 
 4 9 13 
 11 
 1 2 3 4 5 7 8 9 10 11 13 
 5 
 1 2 6 8 10 
 15 
 1 2 3 4 5 6 7 8 9 10 11 12 
 13 14 15 
 4 
 2 4 8 15 
 14 
 2 3 4 5 6 7 8 9 10 11 12 13 
 14 15 
 6 
 1 5 6 7 8 10 
 13 
 1 2 3 4 5 6 8 9 10 11 12 14 
 15 
 5 
 3 7 11 12 15 
 15 
 1 2 3 4 5 6 7 8 9 10 11 12 
 13 14 15 
 14 
 1 2 3 4 5 6 7 9 10 11 12 13 
 14 15 
 10 
 1 2 3 4 5 6 10 11 13 14 
 2 
 8 15 
 2 
 5 8 
 11 
 1 2 3 5 6 8 10 12 13 14 15 
 5 
 1 3 5 8 10 
 6 
 2 3 5 9 11 14 
 9 
 3 5 6 8 9 11 13 14 15 
 15 
 1 2 3 4 5 6 7 8 9 10 11 12 
 13 14 15 
 3 
 5 11 12 
 11 
 3 4 5 6 7 8 10 11 13 14 15 
 2 
 2 6 
 4 
 6 10 11 15 
 5 
 1 3 4 10 12 
 10 
 2 3 5 6 7 8 9 12 13 14 
 7 
 1 2 6 9 11 14 15 
 2 
 3 14 
 3 
 4 6 11 
 7 
 5 7 8 9 11 12 13 
 4 
 9 10 12 15 
 15 
 1 2 3 4 5 6 7 8 9 10 11 12 
 13 14 15 
 9 
 1 2 4 7 8 9 10 11 12 
 11 
 3 4 5 6 7 8 9 11 13 14 15 
 13 
 1 2 3 4 5 6 8 9 10 11 12 14 
 15 
 6 
 5 6 7 11 12 13 
 14 
 1 2 3 4 6 7 8 9 10 11 12 13 
 14 15 
 6 
 1 4 6 7 8 11 
 10 
 1 2 3 4 6 7 11 13 14 15 
 13 
 1 2 3 4 5 6 7 8 9 10 11 13 
 14 
 7 
 2 3 5 8 12 13 14 
 13 
 1 2 3 5 6 7 8 10 11 12 13 14 
 15 
 15 
 1 2 3 4 5 6 7 8 9 10 11 12 
 13 14 15 
 9 
 2 4 5 6 7 8 11 14 15 
 14 
 1 2 3 4 5 6 7 8 10 11 12 13 
 14 15 
 14 
 1 2 3 4 5 6 7 8 9 10 12 13 
 14 15 
 5 
 4 10 11 12 15 
 9 
 1 2 3 4 6 8 10 12 13 
 5 
 5 9 12 13 14 
 3 
 10 12 14 
 12 
 2 3 4 5 6 8 9 11 12 13 14 15 
 14 
 1 3 4 5 6 7 8 9 10 11 12 13 
 14 15 
 6 
 3 5 9 12 14 15 
 6 
 1 4 10 11 13 14 
 2 
 3 8 
 2 
 1 12 
 14 
 1 2 3 4 5 7 8 9 10 11 12 13 
 14 15 
 10 
 1 2 4 6 7 9 10 11 13 14 
 6 
 1 9 10 11 12 13 
 7 
 1 2 3 7 8 10 12 
 6 
 3 4 8 10 13 15 
 2 
 11 14 
 6 
 3 5 7 9 11 14 
 9 
 2 4 5 6 7 9 12 14 15 
 14 
 2 3 4 5 6 7 8 9 10 11 12 13 
 14 15 
 13 
 1 2 3 4 5 6 7 8 9 10 11 13 
 15 
 8 
 2 4 7 8 9 11 14 15 
 11 
 2 4 5 7 8 9 11 12 13 14 15 
 15 
 1 2 3 4 5 6 7 8 9 10 11 12 
 13 14 15 
 6 
 2 3 5 9 14 15 
 12 
 2 3 4 5 6 7 8 9 11 12 13 15 
 4 
 5 8 9 15 
 12 
 1 2 5 6 7 8 9 11 12 13 14 15 
 8 
 1 3 5 6 7 10 12 15 
 6 
 4 8 9 10 11 14 
 9 
 1 2 7 9 10 11 13 14 15 
 2 
 1 12 
 11 
 1 2 3 4 6 8 11 12 13 14 15 
 10 
 3 4 5 6 7 8 10 11 12 15 
 11 
 2 3 5 6 7 8 9 10 13 14 15 
 3 
 1 11 15 
 10 
 1 2 3 5 7 8 9 10 11 15 
 9 
 1 3 4 6 7 8 11 13 15 
 3 
 9 10 13 
 11 
 1 2 4 5 6 7 8 9 10 12 15 
 10 
 1 2 4 5 6 7 9 10 12 15 
 4 
 3 4 5 11 
 15 
 1 2 3 4 5 6 7 8 9 10 11 12 
 13 14 15 
 15 
 1 2 3 4 5 6 7 8 9 10 11 12 
 13 14 15 
 7 
 3 4 5 6 10 14 15 
 4 
 6 7 14 15 
 6 
 1 5 6 7 13 14 
 8 
 2 3 5 6 7 8 10 12 
 12 
 1 2 3 5 6 7 8 10 11 12 13 15 
 10 
 1 3 5 6 8 9 11 12 14 15 
 5 
 5 6 7 8 12 
 9 
 1 2 3 4 5 8 9 10 15 
 3 
 9 10 14 
 11 
 1 2 3 4 5 6 7 8 9 10 12 
 15 
 1 2 3 4 5 6 7 8 9 10 11 12 
 13 14 15 
 3 
 4 11 14 
 5 
 3 5 11 12 15 
 5 
 3 5 7 11 12 
 13 
 1 3 4 5 6 7 8 9 10 11 12 14 
 15 
 4 
 6 8 13 14 
 14 
 1 2 3 4 5 6 7 8 9 10 11 12 
 13 15 
 5 
 2 6 8 11 13 
 9 
 1 3 4 6 7 8 9 11 13 
 7 
 6 7 10 11 12 13 14 
 2 
 3 10 
 15 
 1 2 3 4 5 6 7 8 9 10 11 12 
 13 14 15 
 9 
 2 3 4 5 7 8 11 13 14 
 8 
 1 2 3 7 11 12 13 15 
 11 
 1 3 4 5 7 8 10 12 13 14 15 
 12 
 1 4 6 7 8 9 10 11 12 13 14 15 
 